c read Graph
c width = 177
c time = 298 ms
c width = 17
c time = 398 ms
c width = 16
c time = 2806 ms
c width = 15
c time = 5772 ms
c width = 14
c time = 17527 ms
c width = 14
c time = 299901 ms
s td 398 15 463
b 1 31 395
b 2 202 205
b 3 23 159 392
b 4 78 391 392
b 5 91 390 391
b 6 46 363
b 7 133 363 364
b 8 116 364 365
b 9 75 365 366
b 10 59 446
b 11 170 446 447
b 12 63 102
b 13 150 393
b 14 51 448
b 15 37 277 278 459
b 16 113 316 317 449
b 17 63 139 387 388
b 18 140 305 306 378
b 19 145 297 298 388
b 20 161 360 444 445
b 21 130 207 208 396
b 22 124 208 209 210
b 23 8 212 213 214
b 24 162 214 215 218
b 25 104 218 219 221
b 26 129 222 223 225
b 27 132 225 226 227
b 28 67 229 230 232
b 29 15 232 233 236
b 30 115 236 237 241
b 31 180 241 242 245
b 32 118 245 246 247
b 33 110 247 248 249
b 34 151 249 250 251
b 35 65 251 252 259
b 36 11 259 260 265
b 37 61 265 266 267
b 38 20 269 270 271
b 39 138 272 273 275
b 40 71 278 279 280
b 41 94 280 281 282
b 42 165 282 283 285
b 43 88 286 287 290
b 44 157 292 293 297
b 45 297 298 301 388
b 46 3 302 303 305
b 47 305 306 309 378
b 48 41 309 310 312
b 49 120 313 314 316
b 50 189 318 319 320
b 51 73 320 321 335
b 52 58 335 336 338
b 53 184 340 341 342
b 54 177 347 348 355
b 55 192 355 356 359
b 56 57 378 379 387
b 57 3 20 63 394
b 58 151 449 450 451
b 59 83 453 454 456
b 60 184 456 457 458
b 61 71 94 278 280 445
b 62 94 278 280 282 445
b 63 277 278 282 445 459
b 64 83 277 282 359 444 445 459
b 65 83 359 360 444 445
b 66 83 236 241 272 277 282 359 440 444 459
b 67 236 241 272 277 440 441 442 444
b 68 115 236 241 441 442
b 69 272 275 277 440 441 442 444
b 70 138 272 275 440 441
b 71 275 276 277 442 443 444
b 72 1 276 277 443 444
b 73 134 275 276 442 443
b 74 83 232 236 241 271 272 282 340 342 359 440 452 459
b 75 83 232 236 271 272 340 342 452 456 459
b 76 83 271 272 452 453 456
b 77 164 271 272 452 453
b 78 232 236 340 342 456 458 459
b 79 15 232 236 458 459
b 80 184 340 342 456 458
b 81 83 228 232 241 271 282 318 335 340 342 359 435 440 452
b 82 228 241 271 282 318 335 340 342 359 435 440 452
b 83 83 228 232 318 320 335 435 438 440
b 84 83 320 335 438 439 440
b 85 73 320 335 438 439
b 86 228 229 232 318 320 435 436 438
b 87 143 228 229 435 436
b 88 229 232 318 320 436 437 438
b 89 67 229 232 437 438
b 90 189 318 320 436 437
b 91 99 228 241 249 251 271 282 316 318 335 340 342 359 435 452
b 92 99 228 241 249 251 271 282 316 335 340 342 359 435 452
b 93 99 249 251 316 318 449 452
b 94 99 249 251 449 451 452
b 95 151 249 251 449 451
b 96 99 316 317 318 449
b 97 99 228 241 249 251 271 282 316 335 340 342 359 433 434 435
b 98 20 228 241 249 251 271 282 316 335 340 342 359 433 434 435
b 99 20 228 241 249 251 268 271 282 316 335 340 342 359 432 433
b 100 20 228 241 249 251 268 282 316 335 340 342 355 359 431 432
b 101 20 227 228 241 249 251 268 282 316 335 340 342 355 430 431
b 102 142 227 228 430 431
b 103 20 227 241 249 251 268 282 313 316 335 340 342 355 429 430
b 104 20 227 241 249 251 267 268 282 313 335 340 342 355 428 429
b 105 20 227 241 249 251 267 282 312 313 335 340 342 355 427 428
b 106 20 227 241 249 251 265 267 282 312 335 340 342 355 426 427
b 107 61 265 267 426 427
b 108 20 225 227 241 249 251 265 282 312 335 340 342 355 425 426
b 109 20 225 241 249 251 265 282 309 312 335 340 342 355 424 425
b 110 20 222 225 241 249 251 265 282 309 335 340 342 355 423 424
b 111 20 221 222 241 249 251 265 282 309 335 340 342 355 422 423
b 112 126 221 222 422 423
b 113 129 222 225 423 424
b 114 41 309 312 424 425
b 115 132 225 227 425 426
b 116 48 312 313 427 428
b 117 194 267 268 428 429
b 118 120 313 316 429 430
b 119 192 355 359 431 432
b 120 20 268 269 271 432 433
b 121 178 268 269 432 433
b 122 11 20 65 141 221 241 249 282 309 335 340 342 355 414 422
b 123 20 65 141 218 221 241 249 282 309 335 340 413 414
b 124 104 218 221 413 414
b 125 20 65 141 218 241 249 282 309 335 339 340 412 413
b 126 174 339 340 412 413
b 127 20 65 141 218 241 249 282 309 335 339 411 412
b 128 20 141 214 218 241 249 282 309 335 339 410 411
b 129 20 141 214 241 249 282 301 302 309 335 339 410
b 130 11 141 342 347 355 414 421 422
b 131 11 141 342 347 414 420 421
b 132 11 342 346 347 414 418 420
b 133 11 188 346 347 418 420
b 134 11 188 418 419 420
b 135 342 345 346 414 417 418
b 136 11 20 65 221 241 249 251 265 282 309 335 340 342 355 422
b 137 11 65 251 259 265
b 138 20 63 214 241 249 282 291 301 302 309 335 339 409 410
b 139 20 63 291 301 302 309 378 409 410
b 140 20 63 302 305 309 378
b 141 3 20 63 302 305
b 142 63 291 292 297 301 378 409 410
b 143 157 292 297 409 410
b 144 63 291 292 297 301 378 387
b 145 57 291 292 378 387
b 146 63 297 301 387 388
b 147 63 214 241 249 282 291 335 339 404 405 409
b 148 210 214 241 249 282 290 291 404 405 409
b 149 210 241 249 282 286 290 400 404
b 150 210 282 285 286 399 400
b 151 165 210 282 285 399
b 152 84 285 286 399 400
b 153 241 245 249 286 290 400 402 404
b 154 241 245 286 290 400 401 402
b 155 180 241 245 400 401
b 156 88 286 290 401 402
b 157 245 247 249 402 403 404
b 158 118 245 247 402 403
b 159 110 247 249 403 404
b 160 210 214 290 291 405 407 408 409
b 161 5 290 291 407 408
b 162 210 212 214 405 407 408 409
b 163 210 211 212 405 406 407
b 164 4 211 212 406 407
b 165 35 210 211 405 406
b 166 8 212 214 408 409
b 167 63 335 338 339 404 405
b 168 58 335 338 404 405
b 169 177 347 355 421 422
b 170 162 214 218 410 411
b 171 172 345 346 417 418
b 172 342 344 345 414 416 417
b 173 144 344 345 416 417
b 174 342 343 344 414 415 416
b 175 187 342 343 415 416
b 176 108 343 344 414 415
b 177 165 208 210 398 399
b 178 124 208 210 398 399
b 179 165 208 396 397 398
b 180 130 208 396 397 398
b 181 204 457 458
b 182 147 455 456
b 183 454 455 456
b 184 197 454 455
b 185 131 450 451
b 186 163 386 387
b 187 379 386 387
b 188 121 385 386
b 189 379 385 386
b 190 6 384 385
b 191 379 384 385
b 192 76 383 384
b 193 379 383 384
b 194 196 382 383
b 195 379 382 383
b 196 79 381 382
b 197 379 381 382
b 198 101 380 381
b 199 379 380 381
b 200 153 379 380
b 201 29 358 359
b 202 356 358 359
b 203 32 357 358
b 204 356 357 358
b 205 60 356 357
b 206 135 354 355
b 207 348 354 355
b 208 112 353 354
b 209 348 353 354
b 210 77 352 353
b 211 348 352 353
b 212 98 351 352
b 213 348 351 352
b 214 90 350 351
b 215 348 350 351
b 216 18 349 350
b 217 348 349 350
b 218 156 348 349
b 219 50 341 342
b 220 80 337 338
b 221 336 337 338
b 222 66 336 337
b 223 36 334 335
b 224 321 334 335
b 225 10 333 334
b 226 321 333 334
b 227 69 332 333
b 228 321 332 333
b 229 106 331 332
b 230 321 331 332
b 231 175 330 331
b 232 321 330 331
b 233 70 329 330
b 234 321 329 330
b 235 181 328 329
b 236 321 328 329
b 237 146 327 328
b 238 321 327 328
b 239 26 326 327
b 240 321 326 327
b 241 47 325 326
b 242 321 325 326
b 243 72 324 325
b 244 321 324 325
b 245 200 323 324
b 246 321 323 324
b 247 56 322 323
b 248 321 322 323
b 249 49 321 322
b 250 33 319 320
b 251 185 315 316
b 252 314 315 316
b 253 53 314 315
b 254 7 311 312
b 255 310 311 312
b 256 100 310 311
b 257 193 308 309
b 258 306 308 309
b 259 171 307 308
b 260 306 307 308
b 261 166 306 307
b 262 14 304 305
b 263 303 304 305
b 264 39 303 304
b 265 38 300 301
b 266 298 300 301
b 267 105 299 300
b 268 298 299 300
b 269 45 298 299
b 270 13 296 297
b 271 293 296 297
b 272 64 295 296
b 273 293 295 296
b 274 87 294 295
b 275 293 294 295
b 276 186 293 294
b 277 125 289 290
b 278 287 289 290
b 279 42 288 289
b 280 287 288 289
b 281 123 287 288
b 282 191 284 285
b 283 283 284 285
b 284 68 283 284
b 285 137 281 282
b 286 97 279 280
b 287 190 274 275
b 288 273 274 275
b 289 25 273 274
b 290 195 270 271
b 291 122 266 267
b 292 154 264 265
b 293 260 264 265
b 294 92 263 264
b 295 260 263 264
b 296 179 262 263
b 297 260 262 263
b 298 152 261 262
b 299 260 261 262
b 300 183 260 261
b 301 44 258 259
b 302 252 258 259
b 303 85 257 258
b 304 252 257 258
b 305 198 256 257
b 306 252 256 257
b 307 128 255 256
b 308 252 255 256
b 309 22 254 255
b 310 252 254 255
b 311 95 253 254
b 312 252 253 254
b 313 168 252 253
b 314 114 250 251
b 315 136 248 249
b 316 107 246 247
b 317 93 244 245
b 318 242 244 245
b 319 52 243 244
b 320 242 243 244
b 321 149 242 243
b 322 160 240 241
b 323 237 240 241
b 324 82 239 240
b 325 237 239 240
b 326 173 238 239
b 327 237 238 239
b 328 96 237 238
b 329 203 235 236
b 330 233 235 236
b 331 158 234 235
b 332 233 234 235
b 333 2 233 234
b 334 21 231 232
b 335 230 231 232
b 336 19 230 231
b 337 12 226 227
b 338 199 224 225
b 339 223 224 225
b 340 167 223 224
b 341 109 220 221
b 342 219 220 221
b 343 201 219 220
b 344 54 217 218
b 345 215 217 218
b 346 34 216 217
b 347 215 216 217
b 348 30 215 216
b 349 9 213 214
b 350 17 209 210
b 351 111 207 396
b 352 43 361 362
b 353 161 361 362
b 354 155 161 362
b 355 161 360 361
b 356 182 360 361
b 357 81 388 389
b 358 145 388 389
b 359 145 389 390
b 360 24 377 378
b 361 140 377 378
b 362 103 376 377
b 363 140 376 377
b 364 140 375 376
b 365 176 375 376
b 366 89 374 375
b 367 140 374 375
b 368 28 373 374
b 369 140 373 374
b 370 117 372 373
b 371 140 372 373
b 372 16 371 372
b 373 140 371 372
b 374 119 370 371
b 375 140 370 371
b 376 27 369 370
b 377 140 369 370
b 378 140 368 369
b 379 169 368 369
b 380 74 367 368
b 381 140 367 368
b 382 140 366 367
b 383 113 448 449
b 384 111 395 396
b 385 40 206 207
b 386 111 206 207
b 387 111 205 206
b 388 63 139 447
b 389 37 55 463
b 390 37 462 463
b 391 62 462 463
b 392 37 461 462
b 393 127 461 462
b 394 37 460 461
b 395 148 460 461
b 396 37 459 460
b 397 86 459 460
b 398 20 393 394
1 384
2 387
3 4
4 5
5 359
6 7
7 8
8 9
9 382
10 11
11 388
12 17
13 398
14 383
15 396
15 63
16 383
16 96
17 388
17 146
18 361
18 47
19 358
19 45
20 355
20 65
21 351
21 180
22 350
22 178
23 349
23 166
24 345
24 170
25 342
25 124
26 339
26 113
27 337
27 115
28 335
28 89
29 330
29 79
30 323
30 68
31 318
31 155
32 316
32 158
33 315
33 159
34 314
34 95
35 302
35 137
36 293
36 137
37 291
37 107
38 290
38 120
39 288
39 70
40 286
40 61
41 285
41 62
42 283
42 151
43 278
43 156
44 271
44 143
45 266
45 146
46 263
46 141
47 258
47 140
48 255
48 114
49 252
49 118
50 250
50 90
51 224
51 85
52 221
52 168
53 219
53 80
54 207
54 169
55 202
55 119
56 187
56 145
57 398
57 141
58 185
58 95
59 183
59 76
60 181
60 80
61 62
62 63
63 64
64 66
64 65
66 74
66 67
67 69
67 68
69 71
69 70
71 73
71 72
74 81
74 75
75 78
75 76
76 77
78 79
78 80
81 91
81 83
81 82
83 86
83 84
84 85
86 87
86 88
88 90
88 89
91 97
91 93
91 92
93 96
93 94
94 95
97 98
98 99
99 120
99 100
100 119
100 101
101 103
101 102
103 118
103 104
104 117
104 105
105 116
105 106
106 108
106 107
108 115
108 109
109 114
109 110
110 113
110 111
111 136
111 112
120 121
122 123
122 130
122 136
123 124
123 125
125 126
125 127
127 128
128 170
128 129
129 138
130 169
130 131
131 132
132 133
132 135
133 134
135 172
135 171
136 137
138 139
138 147
139 142
139 140
140 141
142 144
142 143
144 145
144 146
147 148
147 167
148 160
148 149
149 150
149 153
150 152
150 151
151 177
153 157
153 154
154 155
154 156
157 159
157 158
160 162
160 161
162 163
162 166
163 165
163 164
167 168
172 173
172 174
174 176
174 175
177 179
177 178
179 180
182 183
183 184
186 187
187 189
188 189
189 191
190 191
191 193
192 193
193 195
194 195
195 197
196 197
197 199
198 199
199 200
201 202
202 204
203 204
204 205
206 207
207 209
208 209
209 211
210 211
211 213
212 213
213 215
214 215
215 217
216 217
217 218
220 221
221 222
223 224
224 226
225 226
226 228
227 228
228 230
229 230
230 232
231 232
232 234
233 234
234 236
235 236
236 238
237 238
238 240
239 240
240 242
241 242
242 244
243 244
244 246
245 246
246 248
247 248
248 249
251 252
252 253
254 255
255 256
257 258
258 260
259 260
260 261
262 263
263 264
265 266
266 268
267 268
268 269
270 271
271 273
272 273
273 275
274 275
275 276
277 278
278 280
279 280
280 281
282 283
283 284
287 288
288 289
292 293
293 295
294 295
295 297
296 297
297 299
298 299
299 300
301 302
302 304
303 304
304 306
305 306
306 308
307 308
308 310
309 310
310 312
311 312
312 313
317 318
318 320
319 320
320 321
322 323
323 325
324 325
325 327
326 327
327 328
329 330
330 332
331 332
332 333
334 335
335 336
338 339
339 340
341 342
342 343
344 345
345 347
346 347
347 348
351 386
351 384
352 353
353 355
353 354
355 356
357 358
358 359
360 361
361 363
362 363
363 364
364 367
364 365
366 367
367 369
368 369
369 371
370 371
371 373
372 373
373 375
374 375
375 377
376 377
377 378
378 381
378 379
380 381
381 382
385 386
386 387
389 390
390 392
390 391
392 394
392 393
394 396
394 395
396 397
